% Generated FlatZinc statistics:
%%%mzn-stat: paths=0
%%%mzn-stat: flatBoolVars=464
%%%mzn-stat: flatIntVars=284
%%%mzn-stat: flatBoolConstraints=461
%%%mzn-stat: flatIntConstraints=491
%%%mzn-stat: evaluatedReifiedConstraints=229
%%%mzn-stat: evaluatedHalfReifiedConstraints=70
%%%mzn-stat: eliminatedImplications=8
%%%mzn-stat: method="satisfy"
%%%mzn-stat: flatTime=0.0782647
%%%mzn-stat-end
coeffs = [-17, -16, -15, -14, -13, -12, -11, -10, -5, -4, -3, -2, -1, 0, 1, 2, 3, 4, 5, 6, 7, 8, 9, 10, 15, 16, 17, 18, 19, 20, 21, 22]
----------
coeffs = [-20, -17, -16, -15, -14, -13, -11, -10, -8, -5, -4, -3, -2, -1, 0, 1, 2, 3, 4, 5, 6, 7, 9, 10, 12, 15, 16, 17, 18, 19, 21, 22]
----------
coeffs = [-19, -17, -16, -15, -14, -13, -12, -10, -7, -5, -4, -3, -2, -1, 0, 1, 2, 3, 4, 5, 6, 7, 8, 10, 13, 15, 16, 17, 18, 19, 20, 22]
----------
coeffs = [-18, -17, -16, -15, -14, -13, -12, -11, -6, -5, -4, -3, -2, -1, 0, 1, 2, 3, 4, 5, 6, 7, 8, 9, 14, 15, 16, 17, 18, 19, 20, 21]
----------
coeffs = [-19, -18, -17, -16, -15, -14, -13, -12, -7, -6, -5, -4, -3, -2, -1, 0, 1, 2, 3, 4, 5, 6, 7, 8, 13, 14, 15, 16, 17, 18, 19, 20]
----------
coeffs = [-20, -19, -18, -17, -16, -15, -14, -13, -8, -7, -6, -5, -4, -3, -2, -1, 0, 1, 2, 3, 4, 5, 6, 7, 12, 13, 14, 15, 16, 17, 18, 19]
----------
coeffs = [-18, -17, -15, -14, -13, -11, -8, -6, -5, -4, -3, -2, -1, 1, 2, 3, 4, 5, 6, 7, 8, 9, 12, 14, 15, 16, 17, 18, 19, 21, 24, 28]
----------
coeffs = [-24, -20, -17, -15, -14, -13, -12, -11, -10, -8, -5, -4, -3, -2, -1, 0, 1, 2, 3, 5, 6, 7, 8, 9, 10, 12, 15, 17, 18, 19, 21, 22]
----------
coeffs = [-18, -17, -15, -14, -13, -12, -11, -8, -6, -5, -3, -2, -1, 0, 1, 2, 3, 4, 5, 6, 7, 8, 9, 12, 14, 15, 17, 18, 19, 20, 21, 24]
----------
coeffs = [-20, -19, -18, -16, -15, -14, -13, -12, -11, -10, -8, -7, -6, -5, -4, -3, -2, -1, 0, 1, 2, 3, 4, 5, 6, 7, 11, 12, 13, 14, 15, 19]
----------
coeffs = [-19, -18, -15, -14, -13, -12, -11, -10, -7, -6, -5, -4, -3, -2, -1, 0, 1, 2, 3, 4, 5, 6, 7, 8, 11, 12, 13, 14, 15, 16, 19, 20]
----------
coeffs = [-20, -19, -16, -15, -14, -13, -12, -11, -8, -7, -6, -5, -4, -3, -2, -1, 0, 1, 2, 3, 4, 5, 6, 7, 10, 11, 12, 13, 14, 15, 18, 19]
----------
coeffs = [-20, -19, -18, -17, -16, -15, -14, -12, -11, -10, -8, -7, -6, -5, -4, -3, -2, -1, 0, 1, 2, 3, 4, 5, 6, 7, 11, 15, 16, 17, 18, 19]
----------
coeffs = [-19, -18, -17, -16, -15, -14, -11, -10, -7, -6, -5, -4, -3, -2, -1, 0, 1, 2, 3, 4, 5, 6, 7, 8, 11, 12, 15, 16, 17, 18, 19, 20]
----------
coeffs = [-20, -19, -18, -17, -16, -15, -12, -11, -8, -7, -6, -5, -4, -3, -2, -1, 0, 1, 2, 3, 4, 5, 6, 7, 10, 11, 14, 15, 16, 17, 18, 19]
----------
coeffs = [-20, -16, -13, -12, -11, -10, -8, -5, -4, -3, -2, -1, 0, 1, 2, 3, 4, 5, 6, 7, 9, 10, 11, 12, 13, 14, 15, 17, 18, 19, 21, 22]
----------
coeffs = [-14, -13, -12, -11, -6, -5, -4, -3, -2, -1, 0, 1, 2, 3, 4, 5, 6, 7, 8, 9, 10, 11, 12, 13, 14, 15, 16, 17, 18, 19, 20, 21]
----------
coeffs = [-19, -15, -13, -12, -11, -10, -7, -5, -4, -3, -2, -1, 0, 1, 2, 3, 4, 5, 6, 7, 8, 10, 11, 12, 13, 14, 15, 16, 18, 19, 20, 22]
----------
coeffs = [-18, -14, -13, -12, -11, -10, -6, -5, -4, -3, -2, -1, 0, 1, 2, 3, 4, 5, 6, 7, 8, 9, 11, 12, 13, 14, 15, 16, 17, 19, 20, 21]
----------
coeffs = [-19, -15, -14, -13, -12, -11, -7, -6, -5, -4, -3, -2, -1, 0, 1, 2, 3, 4, 5, 6, 7, 8, 10, 11, 12, 13, 14, 15, 16, 18, 19, 20]
----------
coeffs = [-20, -17, -16, -15, -14, -12, -8, -5, -4, -3, -2, -1, 0, 1, 2, 3, 4, 5, 6, 7, 9, 10, 11, 13, 14, 15, 16, 17, 18, 19, 21, 22]
----------
coeffs = [-18, -17, -16, -15, -6, -5, -4, -3, -2, -1, 0, 1, 2, 3, 4, 5, 6, 7, 8, 9, 10, 11, 12, 13, 14, 15, 16, 17, 18, 19, 20, 21]
----------
coeffs = [-19, -17, -16, -15, -14, -11, -7, -5, -4, -3, -2, -1, 0, 1, 2, 3, 4, 5, 6, 7, 8, 10, 11, 12, 14, 15, 16, 17, 18, 19, 20, 22]
----------
coeffs = [-18, -17, -16, -15, -14, -10, -6, -5, -4, -3, -2, -1, 0, 1, 2, 3, 4, 5, 6, 7, 8, 9, 11, 12, 13, 15, 16, 17, 18, 19, 20, 21]
----------
coeffs = [-19, -18, -17, -16, -15, -11, -7, -6, -5, -4, -3, -2, -1, 0, 1, 2, 3, 4, 5, 6, 7, 8, 10, 11, 12, 14, 15, 16, 17, 18, 19, 20]
----------
coeffs = [-13, -12, -11, -10, -5, -4, -3, -2, -1, 0, 1, 2, 3, 4, 5, 6, 7, 8, 9, 10, 11, 12, 13, 14, 15, 16, 17, 18, 19, 20, 21, 22]
----------
coeffs = [-14, -13, -11, -6, -5, -4, -3, -2, -1, 1, 2, 3, 4, 5, 6, 7, 8, 9, 10, 11, 12, 13, 14, 15, 16, 17, 18, 19, 20, 21, 24, 28]
----------
coeffs = [-20, -13, -12, -11, -10, -8, -5, -4, -3, -2, -1, 0, 1, 2, 3, 4, 5, 6, 7, 8, 9, 10, 11, 12, 13, 14, 15, 17, 18, 19, 21, 22]
----------
coeffs = [-28, -20, -16, -13, -12, -11, -10, -8, -5, -4, -3, -2, -1, 0, 1, 2, 3, 4, 5, 6, 7, 9, 10, 11, 13, 14, 15, 17, 18, 19, 21, 22]
----------
coeffs = [-18, -17, -15, -8, -6, -5, -3, -2, -1, 1, 2, 3, 4, 5, 6, 7, 8, 9, 10, 11, 12, 13, 14, 15, 16, 17, 18, 19, 20, 21, 24, 28]
----------
coeffs = [-24, -17, -15, -14, -12, -8, -5, -4, -3, -2, -1, 0, 1, 2, 3, 4, 5, 6, 7, 8, 9, 10, 11, 12, 13, 14, 15, 17, 18, 19, 21, 22]
----------
coeffs = [-17, -16, -15, -14, -5, -4, -3, -2, -1, 0, 1, 2, 3, 4, 5, 6, 7, 8, 9, 10, 11, 12, 13, 14, 15, 16, 17, 18, 19, 20, 21, 22]
----------
coeffs = [-14, -13, -11, -8, -6, -5, -3, -2, -1, 0, 1, 2, 3, 4, 5, 6, 7, 8, 9, 10, 11, 12, 13, 14, 15, 16, 17, 18, 19, 20, 21, 24]
----------
coeffs = [-16, -13, -11, -10, -8, -5, -4, -3, -2, -1, 0, 1, 2, 3, 4, 5, 6, 7, 8, 9, 10, 11, 12, 13, 14, 15, 16, 17, 18, 19, 21, 22]
----------
coeffs = [-18, -17, -15, -12, -6, -5, -3, -2, -1, 0, 1, 2, 3, 4, 5, 6, 7, 8, 9, 10, 11, 12, 13, 14, 15, 16, 17, 18, 19, 20, 21, 24]
----------
coeffs = [-20, -17, -15, -14, -8, -5, -4, -3, -2, -1, 0, 1, 2, 3, 4, 5, 6, 7, 8, 9, 10, 11, 12, 13, 14, 15, 16, 17, 18, 19, 21, 22]
----------
coeffs = [-20, -19, -18, -17, -16, -15, -14, -13, -12, -11, -10, -8, -7, -6, -5, -4, -3, -2, 3, 4, 5, 6, 7, 11, 12, 13, 14, 15, 16, 17, 18, 19]
----------
coeffs = [-17, -16, -15, -14, -13, -12, -11, -10, -1, 0, 1, 2, 3, 4, 5, 6, 7, 8, 9, 10, 11, 12, 13, 14, 15, 16, 17, 18, 19, 20, 21, 22]
----------
coeffs = [-17, -16, -15, -14, -13, -12, -11, -10, -5, -4, -3, -2, 3, 4, 5, 6, 7, 8, 9, 10, 11, 12, 13, 14, 15, 16, 17, 18, 19, 20, 21, 22]
----------
coeffs = [-18, -17, -15, -14, -13, -12, -11, -8, -2, -1, 1, 2, 3, 4, 5, 6, 7, 8, 9, 10, 11, 12, 13, 14, 15, 16, 17, 18, 19, 20, 21, 24]
----------
coeffs = [-18, -17, -15, -14, -13, -12, -11, -8, -6, -5, -3, 0, 2, 3, 5, 6, 7, 8, 9, 10, 11, 12, 13, 14, 15, 16, 17, 18, 19, 20, 21, 24]
----------
coeffs = [-20, -17, -16, -15, -14, -13, -11, -10, -4, -1, 0, 1, 2, 3, 4, 5, 6, 7, 8, 9, 10, 11, 12, 13, 14, 15, 16, 17, 18, 19, 21, 22]
----------
coeffs = [-20, -17, -16, -15, -14, -13, -11, -10, -8, -5, -3, -2, 0, 3, 4, 5, 6, 7, 8, 9, 10, 11, 12, 13, 14, 15, 16, 17, 18, 19, 21, 22]
----------
coeffs = [-18, -17, -15, -14, -13, -11, -8, -4, -2, -1, 1, 2, 3, 5, 6, 7, 8, 9, 10, 11, 12, 13, 14, 15, 16, 17, 18, 19, 20, 21, 24, 28]
----------
coeffs = [-24, -20, -17, -15, -14, -13, -11, -10, -8, -4, -1, 0, 1, 2, 3, 4, 5, 6, 7, 8, 9, 10, 11, 12, 13, 14, 15, 17, 18, 19, 21, 22]
----------
coeffs = [-18, -17, -15, -14, -13, -11, -8, -6, -5, -4, -3, 2, 3, 4, 5, 6, 7, 9, 10, 11, 12, 13, 14, 15, 16, 17, 18, 19, 20, 21, 24, 28]
----------
coeffs = [-24, -20, -17, -15, -14, -13, -12, -11, -10, -5, -4, -3, -2, 0, 3, 4, 5, 6, 7, 8, 9, 10, 11, 12, 13, 14, 15, 17, 18, 19, 21, 22]
----------
coeffs = [-20, -17, -16, -15, -14, -13, -12, -11, -10, -8, -4, -1, 0, 1, 2, 3, 5, 6, 7, 9, 10, 11, 12, 13, 14, 15, 16, 17, 18, 19, 21, 22]
----------
coeffs = [-20, -17, -16, -15, -14, -13, -12, -11, -10, -8, -5, -4, -3, -2, 3, 4, 5, 6, 7, 9, 10, 11, 12, 13, 14, 15, 16, 17, 18, 19, 21, 22]
----------
coeffs = [-20, -19, -18, -17, -16, -15, -14, -13, -12, -11, -10, -8, -7, -6, -4, -3, -2, -1, 0, 1, 2, 3, 7, 11, 12, 13, 14, 15, 16, 17, 18, 19]
----------
coeffs = [-18, -17, -16, -15, -14, -13, -12, -11, -10, -6, -2, -1, 0, 1, 2, 3, 4, 5, 7, 8, 9, 11, 12, 13, 14, 15, 16, 17, 18, 19, 20, 21]
----------
coeffs = [-18, -17, -16, -15, -14, -13, -12, -11, -10, -6, -5, -4, -3, -2, 3, 4, 5, 6, 7, 8, 9, 11, 12, 13, 14, 15, 16, 17, 18, 19, 20, 21]
----------
coeffs = [-18, -17, -16, -15, -14, -13, -12, -11, -2, -1, 0, 1, 2, 3, 4, 5, 6, 7, 8, 9, 10, 11, 12, 13, 14, 15, 16, 17, 18, 19, 20, 21]
----------
coeffs = [-18, -17, -16, -15, -14, -13, -12, -11, -6, -5, -4, -3, 2, 3, 4, 5, 6, 7, 8, 9, 10, 11, 12, 13, 14, 15, 16, 17, 18, 19, 20, 21]
----------
coeffs = [-19, -17, -16, -15, -14, -13, -12, -11, -10, -7, -3, -1, 0, 1, 2, 3, 4, 6, 7, 8, 10, 11, 12, 13, 14, 15, 16, 17, 18, 19, 20, 22]
----------
coeffs = [-19, -17, -16, -15, -14, -13, -12, -11, -10, -7, -5, -4, -3, -2, 3, 4, 5, 6, 7, 8, 10, 11, 12, 13, 14, 15, 16, 17, 18, 19, 20, 22]
----------
coeffs = [-19, -18, -17, -16, -15, -14, -13, -12, -11, -7, -3, -2, -1, 0, 1, 2, 3, 4, 6, 7, 8, 10, 11, 12, 13, 14, 15, 16, 17, 18, 19, 20]
----------
coeffs = [-19, -18, -17, -16, -15, -14, -13, -12, -11, -7, -6, -5, -4, -3, 2, 3, 4, 5, 6, 7, 8, 10, 11, 12, 13, 14, 15, 16, 17, 18, 19, 20]
----------
coeffs = [-20, -19, -18, -17, -16, -15, -14, -13, -12, -11, -8, -7, -4, -3, -2, -1, 0, 1, 2, 3, 6, 7, 10, 11, 12, 13, 14, 15, 16, 17, 18, 19]
----------
coeffs = [-19, -18, -17, -16, -15, -14, -13, -12, -11, -10, -7, -6, -3, -2, -1, 0, 1, 2, 3, 4, 7, 8, 11, 12, 13, 14, 15, 16, 17, 18, 19, 20]
----------
coeffs = [-20, -19, -18, -17, -16, -15, -14, -13, -12, -11, -8, -7, -6, -5, -4, -3, 2, 3, 4, 5, 6, 7, 10, 11, 12, 13, 14, 15, 16, 17, 18, 19]
----------
coeffs = [-19, -18, -17, -16, -15, -14, -13, -12, -11, -10, -7, -6, -5, -4, -3, -2, 3, 4, 5, 6, 7, 8, 11, 12, 13, 14, 15, 16, 17, 18, 19, 20]
----------
==========
%%%mzn-stat: nodes=59270
%%%mzn-stat: failures=44190
%%%mzn-stat: restarts=0
%%%mzn-stat: variables=70674
%%%mzn-stat: intVars=324
%%%mzn-stat: boolVariables=70348
%%%mzn-stat: propagators=271
%%%mzn-stat: propagations=10335098
%%%mzn-stat: peakDepth=42
%%%mzn-stat: nogoods=44190
%%%mzn-stat: backjumps=13355
%%%mzn-stat: peakMem=0.00
%%%mzn-stat: time=2.700
%%%mzn-stat: initTime=0.026
%%%mzn-stat: solveTime=2.674
%%%mzn-stat: baseMem=0.00
%%%mzn-stat: trailMem=0.04
%%%mzn-stat: randomSeed=281677793
%%%mzn-stat-end
%%%mzn-stat: nSolutions=62
%%%mzn-stat-end
